c Random generated cnf formula, satisfiable: false
p cnf 10 50
-4 -1 -5 0
-3 9 10 0
10 -8 -1 0
4 -7 3 0
-3 2 -4 0
1 -9 -6 0
1 -10 7 0
8 -1 -10 0
7 8 -9 0
10 9 3 0
8 -7 10 0
-10 -2 9 0
-3 6 5 0
9 8 -7 0
-4 -7 -6 0
7 -10 -8 0
7 -8 2 0
-7 9 -1 0
-4 6 5 0
6 8 9 0
9 8 -7 0
-1 10 -5 0
6 3 8 0
-5 -10 -7 0
5 -6 -1 0
-3 1 -4 0
-2 -9 -7 0
8 7 -9 0
-2 1 5 0
3 -6 -9 0
10 -2 6 0
-9 -6 8 0
6 -1 -10 0
10 2 7 0
6 -5 7 0
-9 -8 6 0
-2 -5 6 0
-6 -2 9 0
-3 1 9 0
9 4 3 0
7 9 -10 0
7 9 -8 0
2 3 -6 0
6 -9 -1 0
-5 -2 8 0
-1 7 -3 0
10 6 -2 0
-1 10 -6 0
-8 10 -9 0
-7 -8 4 0
